p cnf 50 20
x -2 -3 -7 -8 9 10 11 15 17 18 22 29 32 33 34 -35 -42 -44 -45 -48 -49 0
x -1 -2 4 -5 -6 7 -9 -11 12 13 14 -15 17 21 -22 -26 30 32 -33 -34 36 -37 38 -39 40 43 -44 -45 49 0
x 1 3 -7 8 10 -15 -17 18 20 -21 24 -25 27 28 31 34 -35 36 37 39 40 41 -50 0
x -3 -4 -7 9 -11 12 -13 14 -17 -18 -20 21 -22 -23 24 -26 -27 29 30 -31 -32 38 40 -41 -42 -45 46 -48 -49 50 0
x -2 5 -7 -10 -14 15 -16 17 -18 -19 22 24 28 31 -33 35 36 39 -41 43 -45 46 -47 50 0
x 1 -4 5 7 -9 10 -12 -13 -16 18 -20 -21 22 -23 -29 -30 32 -38 -43 44 49 -50 0
x -1 2 5 -9 -10 11 -13 14 -15 16 -18 19 20 21 22 25 26 30 -36 37 38 40 -47 48 50 0
x 1 -5 6 -10 -15 16 -17 -18 -22 -26 27 29 30 -31 32 -33 -35 -36 38 -39 41 -42 46 -49 0
x 1 -6 7 -8 9 10 -12 -13 -15 -19 -22 -26 -27 -29 30 32 34 -37 -38 39 42 44 -47 -49 50 0
x -1 -5 7 8 -9 -17 19 -20 23 25 27 -29 -30 31 -32 -34 35 37 -40 41 43 -45 48 -49 0
x -1 -3 -7 10 -13 -14 -15 -21 23 26 -28 -30 33 36 37 -41 44 48 -49 50 0
x -1 -2 6 7 8 9 10 13 -14 21 -23 24 31 -32 -35 -36 37 38 -41 44 45 -46 -48 -50 0
x -2 -3 -5 9 10 12 -13 -16 18 19 20 22 -24 -27 28 32 33 34 -35 36 37 -38 -40 -43 45 46 -48 -49 50 0
x 7 -11 -13 14 15 17 20 22 27 31 32 -33 -35 -36 37 -38 39 -41 -46 -49 0
x -6 -7 9 -14 -17 18 19 21 23 26 -28 -29 -31 -36 37 -40 -43 45 46 49 0
x -2 -3 -5 -6 8 -9 12 13 -14 -16 -19 -20 24 28 29 -34 -37 -38 -39 40 41 -45 -47 48 -49 0
x -1 2 4 5 10 12 13 -16 -17 -20 -22 23 -27 -28 -30 31 -32 34 37 40 -42 -43 -47 -49 0
x -1 -3 4 5 8 -10 -11 12 14 -16 -20 21 24 -25 28 29 -37 -38 -39 42 -44 -45 48 49 0
x 2 3 6 -8 -9 -11 12 -13 -17 -18 -22 23 -25 27 -28 29 -30 -34 36 -37 39 -40 -44 45 46 -50 0
x -5 -7 -9 -10 11 15 17 19 -27 -29 30 -35 -36 37 -38 40 -41 42 43 45 -46 49 0
g -10